LibMLKEM/why3-cvc5/mlkem.adb_1370_36_loop_invariant_init_1.smt2
;; produced by cvc5.drv ;;
(set-logic ALL)
(set-info :smt-lib-version 2.6)
;;; generated by SMT-LIB2 driver
;;; SMT-LIB2 driver: bit-vectors, common part
;;; SMT-LIB2: integer arithmetic
;; "pow2"
(declare-fun pow2 (Int) Int)

(declare-const two_power_size_minus_one Int)

;; "two_power_size_minus_one_val"
(assert (= two_power_size_minus_one (pow2 (- 8 1))))

;; "min"
(define-fun min ((x Int) (y Int)) Int
  (ite (<= x y) x y))

;; "max"
(define-fun max ((x Int) (y Int)) Int
  (ite (<= x y) y x))

;; "Min_r"
(assert (forall ((x Int) (y Int)) (=> (<= y x) (= (min x y) y))))

;; "Max_l"
(assert (forall ((x Int) (y Int)) (=> (<= y x) (= (max x y) x))))

;; "Min_comm"
(assert (forall ((x Int) (y Int)) (= (min x y) (min y x))))

;; "Max_comm"
(assert (forall ((x Int) (y Int)) (= (max x y) (max y x))))

;; "Min_assoc"
(assert
  (forall ((x Int) (y Int) (z Int)) (= (min (min x y) z) (min x (min y z)))))

;; "Max_assoc"
(assert
  (forall ((x Int) (y Int) (z Int)) (= (max (max x y) z) (max x (max y z)))))

(declare-sort byte 0)

;; "to_rep"
(declare-fun to_rep (byte) (_ BitVec 8))

;; "of_rep"
(declare-fun of_rep ((_ BitVec 8)) byte)

;; "inversion_axiom"
(assert
  (forall ((x byte)) (! (= (of_rep (to_rep x)) x) :pattern ((to_rep x)) )))

;; "range_axiom"
(assert true)

;; "coerce_axiom"
(assert
  (forall ((x (_ BitVec 8)))
    (! (= (to_rep (of_rep x)) x) :pattern ((to_rep (of_rep x))) )))

(declare-sort map1 0)

;; "has_bounds"
(declare-fun has_bounds (map1
  Int
  Int) Bool)

(declare-const b map1)

(declare-sort u8_bit 0)

;; "in_range"
(define-fun in_range ((x (_ BitVec 8))) Bool
  (and (bvule #x00 x) (bvule x #x01)))

;; "to_rep"
(declare-fun to_rep1 (u8_bit) (_ BitVec 8))

;; "of_rep"
(declare-fun of_rep1 ((_ BitVec 8)) u8_bit)

;; "inversion_axiom"
(assert
  (forall ((x u8_bit))
    (! (= (of_rep1 (to_rep1 x)) x) :pattern ((to_rep1 x)) )))

;; "range_axiom"
(assert
  (forall ((x u8_bit)) (! (in_range (to_rep1 x)) :pattern ((to_rep1 x)) )))

;; "coerce_axiom"
(assert
  (forall ((x (_ BitVec 8)))
    (! (=> (in_range x) (= (to_rep1 (of_rep1 x)) x)) :pattern ((to_rep1
                                                                 (of_rep1 x))) )))

(declare-sort map2 0)

;; "has_bounds"
(declare-fun has_bounds1 (map2
  Int
  Int) Bool)

;; "bytestobits"
(declare-fun bytestobits (map1) map2)

;; "bytestobits__function_guard"
(declare-fun bytestobits__function_guard (map2
  map1) Bool)

(declare-const sb map2)

(declare-const i Int)

;; "in_range"
(define-fun in_range1 ((x Int)) Bool
  (and (<= 0 x) (<= x 255)))

;; "in_range"
(define-fun in_range2 ((x Int)) Bool
  (and (<= 0 x) (<= x 2)))

;; "sb__def_axiom"
(assert
  (and
    (bytestobits__function_guard (bytestobits b) b)
    (= sb (bytestobits b))))

;; "bytestobits__post_axiom"
(assert
  (forall ((param__b map1))
    (! (=>
         (has_bounds param__b 0 127)
         (let ((result (bytestobits param__b)))
           (=>
             (bytestobits__function_guard result param__b)
             (has_bounds1 result 0 1023)))) :pattern ((bytestobits param__b)) )))

;; Goal "def'vc"
;; File "mlkem.adb", line 1362, characters 0-0
(assert
  (not
  (=>
    (has_bounds b 0 127)
    (=>
      (has_bounds b 0 127)
      (=>
        (has_bounds1 sb 0 1023)
        (let ((temp___result_4791 (bytestobits b)))
          (=>
            (bytestobits__function_guard temp___result_4791 b)
            (=>
              (= temp___result_4791 sb)
              (=>
                (in_range1 i)
                (forall ((r Int))
                  (=>
                    (= r 0)
                    (=>
                      (in_range2 r)
                      (forall ((j Int))
                        (=>
                          (= j 0)
                          (=>
                            (= (and (ite (<= 0 j) true false) (ite (<= j 1)
                                                                true
                                                                false)) true)
                            (=> (<= 0 r) (<= r j)))))))))))))))))

(check-sat)
